p cnf 30 45
-28 27 -19 
8 15 8 
4 -11 7 
-6 8 29 
4 -21 23 
-13 20 15 
29 9 -20 
-8 -10 -16 
-3 13 11 
21 -22 -11 
-8 9 -1 
7 2 -16 
8 9 -25 
12 -7 -11 
11 24 12 
22 -14 27 
-27 24 -14 
6 5 -23 
-14 1 1 
22 -15 7 
-22 15 10 
-5 -23 -24 
-30 16 -9 
-30 8 16 
18 -7 -16 
17 27 23 
-6 -17 21 
-24 -30 -6 
-16 -6 -22 
26 16 -25 
13 10 25 
21 -25 -20 
22 -21 10 
-2 -30 21 
9 -11 8 
-26 19 4 
-18 10 -4 
2 24 15 
-9 -16 -13 
-16 8 1 
15 -18 -4 
6 -20 20 
18 11 22 
3 23 -9 
11 -30 -29 
